SAT
-99 38 62 -6 -72 65 79 -29 -94 -64 -95 82 -77 37 27 36 12 -68 -71 16 -35 60 7 81 67 8 -49 86 -69 -21 18 85 30 -15 13 53 -32 -50 -73 98 80 -4 -42 -58 78 -14 -39 28 -40 -97 -87 -48 1 3 76 22 -46 43 75 70 -88 -11 100 26 -45 20 33 -89 63 24 9 -19 -57 31 96 10 -25 -84 90 -34 83 66 23 -92 41 59 -61 56 52 -51 -17 5 47 93 -74 54 44 -91 2 55 0
